WARNING: for repeatability, setting FPU to use double precision
============================[ Problem Statistics ]=============================
|                                                                             |
|  Number of variables:           100                                         |
|  Number of clauses:             449                                         |
|  Parse time:                   0.00 s                                       |
|  Eliminated clauses:           0.00 Mb                                      |
|  Simplification time:          0.00 s                                       |
|                                                                             |
============================[ Search Statistics ]==============================
| Conflicts |          ORIGINAL         |          LEARNT          | Progress |
|           |    Vars  Clauses Literals |    Limit  Clauses Lit/Cl |          |
===============================================================================
|       100 |      97      444     1345 |      162      100      7 |  0.010 % |
===============================================================================
restarts              : 2
conflicts             : 194            (59858 /sec)
decisions             : 256            (0.00 % random) (78988 /sec)
propagations          : 4228           (1304536 /sec)
conflict literals     : 1185           (20.79 % deleted)
Memory used           : 13.00 MB
CPU time              : 0.003241 s

SATISFIABLE
